
Gurobi 11.0.3 (linux64) logging started Thu Nov 21 13:27:11 2024

Set parameter LogFile to value "/home/yihong/Coding/OR_SUC/SUC_results_bigM100000_thread4/case24_ieee_rts_theta0.5_epsilon0.05_gurobi_seed250000_num_gen100_N_WDR100_load_scaling_factor1_proposed_T28quadra_cost.txt"
Set parameter TimeLimit to value 3600
Gurobi Optimizer version 11.0.3 build v11.0.3rc0 (linux64 - "Ubuntu 20.04.6 LTS")

CPU model: AMD EPYC 7532 32-Core Processor, instruction set [SSE2|AVX|AVX2]
Thread count: 64 physical cores, 128 logical processors, using up to 4 threads

Optimize a model with 67234 rows, 34821 columns and 1535514 nonzeros
Model fingerprint: 0xc91342d2
Model has 2800 quadratic constraints
Variable types: 32021 continuous, 2800 integer (2800 binary)
Coefficient statistics:
  Matrix range     [3e-04, 3e+03]
  QMatrix range    [2e-03, 8e-03]
  QLMatrix range   [2e-01, 6e+01]
  Objective range  [1e+00, 1e+00]
  Bounds range     [1e+00, 1e+00]
  RHS range        [1e+00, 9e+03]
Presolve removed 54988 rows and 14775 columns
Presolve time: 0.47s
Presolved: 12246 rows, 20046 columns, 68835 nonzeros
Presolved model has 2800 quadratic constraint(s)
Variable types: 17246 continuous, 2800 integer (2800 binary)

Root relaxation: objective 6.233810e+04, 9720 iterations, 0.31 seconds (0.44 work units)

    Nodes    |    Current Node    |     Objective Bounds      |     Work
 Expl Unexpl |  Obj  Depth IntInf | Incumbent    BestBd   Gap | It/Node Time

     0     0 62338.1018    0    -          - 62338.1018      -     -    1s
     0     0 426672.539    0  787          - 426672.539      -     -    1s
     0     0 698673.370    0  756          - 698673.370      -     -    2s
     0     0 698739.758    0  308          - 698739.758      -     -    2s
     0     0 699013.775    0  246          - 699013.775      -     -    2s
     0     0 699014.962    0  246          - 699014.962      -     -    2s
     0     0 699015.756    0  246          - 699015.756      -     -    2s
     0     0 699016.937    0  246          - 699016.937      -     -    2s
     0     2 699016.937    0  246          - 699016.937      -     -    4s
    15    20 699028.585    5  250          - 699028.585      -  44.1    5s
H  499   444                    699222.26502 699033.262  0.03%  19.0    9s
*  499   444             173    699222.26502 699033.262  0.03%  19.0    9s

Cutting planes:
  Gomory: 80
  Lift-and-project: 10
  Implied bound: 326
  MIR: 76
  Flow cover: 113
  RLT: 336

Explored 686 nodes (38759 simplex iterations) in 9.78 seconds (14.63 work units)
Thread count was 4 (of 128 available processors)

Solution count 2: 699222 699222 

Optimal solution found (tolerance 1.00e-03)
Warning: max constraint violation (5.3319e-07) exceeds tolerance
Best objective 6.992222650217e+05, best bound 6.990332623343e+05, gap 0.0270%
